10	5
0	2	1	2
1	1	8
2	2	6	9
3	1	4
4	1	10
5	2	6	3
6	1	4
7	1	3
8	2	7	5
9	1	7
10	1	11
11	0
0	0	0	0	0	0	0
1	6	0	0	2	0	5
2	7	0	0	0	0	5
3	3	3	0	0	2	0
4	9	3	0	0	0	5
5	10	1	3	3	4	3
6	8	5	0	0	4	0
7	2	0	0	0	3	0
8	4	0	1	0	0	2
9	3	0	1	2	0	5
10	3	5	3	2	3	2
11	0	0	0	0	0	0
7	4	4	6	8
